benchmarks/bfuzz0/202638267952657165894140842984532736.smt2
(set-logic QF_FP)
(declare-const x0 (_ FloatingPoint 11 53))
(declare-const x1 (_ FloatingPoint 11 53))
(declare-const x2 (_ FloatingPoint 11 53))
(declare-const x3 (_ FloatingPoint 11 53))
(declare-const x4 (_ FloatingPoint 11 53))
(declare-const x5 (_ FloatingPoint 11 53))
(declare-const x6 (_ FloatingPoint 11 53))
(declare-const x7 (_ FloatingPoint 11 53))
(declare-const x8 (_ FloatingPoint 11 53))
(declare-const x9 (_ FloatingPoint 11 53))
(declare-const x10 (_ FloatingPoint 11 53))
(declare-const x11 (_ FloatingPoint 11 53))
(declare-const x12 (_ FloatingPoint 11 53))
(assert (fp.eq (fp.add RNE x7 x1) (fp.div RNE x6 x0)))
(assert (fp.leq (fp.add RNE x4 x3) (fp.sub RNE x10 x11)))
(assert (fp.gt (fp.neg x8) (fp.add RNE x6 x7)))
(assert (fp.gt (fp.div RNE x3 x5) (fp.neg x6)))
(assert (fp.leq (fp.neg x2) (fp.neg x0)))
(assert (fp.leq (fp.sub RNE x5 x7) (fp.add RNE x6 x12)))
(assert (fp.geq (fp.sub RNE x10 x4) (fp.div RNE x3 x6)))
(assert (fp.geq (fp.sub RNE x2 x6) (fp.add RNE x12 x5)))
(assert (fp.eq (fp.div RNE x3 x11) (fp.mul RNE x4 x9)))
(assert (fp.lt (fp.div RNE x7 x10) (fp.mul RNE x6 x3)))
(assert (fp.eq (fp.sub RNE x7 x1) (fp.add RNE x5 x4)))
(assert (fp.geq (fp.neg x10) (fp.add RNE x3 x8)))
(assert (fp.gt (fp.neg x10) (fp.neg x6)))
(assert (fp.leq (fp.mul RNE x6 x7) (fp.sub RNE x12 x8)))
(assert (fp.geq (fp.add RNE x11 x8) (fp.neg x12)))
(check-sat)
