db/data/202638267952657165894140842984532736.z3.out
-------------------
2500.117099116
